# Solution for model GasLib-40
# Objective value = 4.3647947567931283e+01
loadshed[innode_1] 0
loadshed[innode_2] 0
loadshed[innode_3] 0
loadshed[innode_4] 0
loadshed[innode_5] 0
loadshed[innode_6] 0
loadshed[innode_7] 0
loadshed[innode_8] 0
loadshed[source_1] -1.5949254774068655e-01
loadshed[source_2] 5.8247948142093886e-03
loadshed[source_3] 4.2976283088733191e-01
loadshed[sink_1] 0
loadshed[sink_2] 0
loadshed[sink_3] 0
loadshed[sink_4] 0
loadshed[sink_5] 0
loadshed[sink_6] 0
loadshed[sink_7] 0
loadshed[sink_8] 0
loadshed[sink_9] 0
loadshed[sink_10] 0
loadshed[sink_11] 0
loadshed[sink_12] 1
loadshed[sink_13] 0
loadshed[sink_14] 0
loadshed[sink_15] 0
loadshed[sink_16] 0
loadshed[sink_17] 0
loadshed[sink_18] 0
loadshed[sink_19] 0
loadshed[sink_20] 0
loadshed[sink_21] 1
loadshed[sink_22] 0
loadshed[sink_23] 0
loadshed[sink_24] 6.6891908695630775e-01
loadshed[sink_25] 0
loadshed[sink_26] 0
loadshed[sink_27] 0
loadshed[sink_28] 0
loadshed[sink_29] 0
flow[source_1,sink_3] 1.8330449895358839e+02
flow[innode_1,sink_16] 1.6354166666666970e+01
flow[innode_6,sink_13] 2.4330214202445045e+01
flow[sink_13,sink_14] 7.9760475357783776e+00
flow[sink_14,sink_10] -8.37811913088829
flow[sink_25,sink_26] 1.2238028068573917e+02
flow[sink_26,sink_9] 1.6354166666669244e+01
flow[sink_9,sink_18] 0
flow[sink_26,sink_4] 8.9671947352403251e+01
flow[sink_4,sink_20] -1.5254851060546342e+01
flow[sink_18,sink_6] -1.6354166666667879e+01
flow[sink_25,innode_8] -1.5059616562025204e+02
flow[sink_6,sink_7] -6.5416666666666671e+01
flow[sink_6,sink_22] 3.2708333333333641e+01
flow[sink_7,sink_24] 5.4145524320687155e+00
flow[sink_22,sink_1] 1.6354166666666970e+01
flow[sink_24,sink_21] 0
flow[sink_21,sink_12] 0
flow[sink_7,sink_5] -8.7185385765403566e+01
flow[sink_5,sink_17] -1.0353955243207024e+02
flow[sink_17,sink_4] -8.8572631746282923e+01
flow[sink_17,sink_8] -3.1321087352453976e+01
flow[sink_3,sink_23] 16.3541666666697
flow[sink_8,sink_20] -4.7675254019120644e+01
flow[sink_25,sink_20] 7.9284271746333644e+01
flow[sink_25,sink_15] -9.1752767680932990e+01
flow[sink_15,sink_29] -6.0554769778306571e+01
flow[sink_29,sink_28] 1.6354166666667879e+01
flow[sink_29,sink_2] 6.3906331235959748e+01
flow[sink_2,sink_15] 4.7552164569293083e+01
flow[sink_29,innode_7] -1.5716943434760086e+02
flow[innode_4,sink_19] 7.3794785797555633e+01
flow[sink_19,innode_3] 5.7440619130888535e+01
flow[innode_4,innode_5] 1.6354166666679703e+01
flow[sink_27,innode_5] -1.6354166666679703e+01
flow[sink_27,sink_19] 0
flow[sink_10,sink_11] 3.2708333333333641e+01
flow[sink_10,innode_2] 0
flow[sink_10,innode_3] -5.7440619130888535e+01
flow[innode_6,sink_25] -2.4330214202445045e+01
flow[sink_11,innode_1] 1.6354166666666970e+01
flow[sink_19,innode_2] 0
flow[source_3,innode_4] 9.0148952464235336e+01
flow[source_2,innode_7] 1.5716943434760086e+02
flow[sink_3,innode_8] 1.5059616562025204e+02
pressure[innode_1] 7.4686595924503166e+01
pressure[innode_2] 7.4838297232106711e+01
pressure[innode_3] 7.7896439450534274e+01
pressure[innode_4] 81.01325
pressure[innode_5] 8.1002000741808786e+01
pressure[innode_6] 7.4590426182734021e+01
pressure[innode_7] 81.01325
pressure[innode_8] 8.0400533084854871e+01
pressure[source_1] 81.01325
pressure[source_2] 81.01325
pressure[source_3] 81.01325
pressure[sink_1] 4.2134165762246063e+00
pressure[sink_2] 7.5190763848877225e+01
pressure[sink_3] 8.0400533084854871e+01
pressure[sink_4] 5.4570131416245857e+01
pressure[sink_5] 4.3472229239319766e+01
pressure[sink_6] 6.31449418661198
pressure[sink_7] 7.21250909021217
pressure[sink_8] 5.2367003486120268e+01
pressure[sink_9] 6.4992415800048249e+01
pressure[sink_10] 7.4838297232106711e+01
pressure[sink_11] 7.4686595924503166e+01
pressure[sink_12] 1.01325
pressure[sink_13] 7.4456297777792457e+01
pressure[sink_14] 7.4442023961318156e+01
pressure[sink_15] 7.5035516511886740e+01
pressure[sink_16] 7.3664946089685486e+01
pressure[sink_17] 5.1185177490128162e+01
pressure[sink_18] 5.87778924385874
pressure[sink_19] 7.8023635197155130e+01
pressure[sink_20] 5.5689298221233727e+01
pressure[sink_21] 1.01325
pressure[sink_22] 5.2771857185796165e+00
pressure[sink_23] 8.0235815073195084e+01
pressure[sink_24] 1.01325
pressure[sink_25] 7.4590426182734021e+01
pressure[sink_26] 6.5971254883990667e+01
pressure[sink_27] 8.0866291377726043e+01
pressure[sink_28] 7.6514301068136163e+01
pressure[sink_29] 7.6809583341753338e+01
interdiction[source_1,sink_3] 0
interdiction[innode_1,sink_16] 0
interdiction[innode_6,sink_13] 0
interdiction[sink_13,sink_14] 0
interdiction[sink_14,sink_10] 0
interdiction[sink_25,sink_26] 0
interdiction[sink_26,sink_9] 0
interdiction[sink_9,sink_18] 1
interdiction[sink_26,sink_4] 0
interdiction[sink_4,sink_20] 0
interdiction[sink_18,sink_6] 0
interdiction[sink_25,innode_8] 0
interdiction[sink_6,sink_7] 0
interdiction[sink_6,sink_22] 0
interdiction[sink_7,sink_24] 0
interdiction[sink_22,sink_1] 0
interdiction[sink_24,sink_21] 0
interdiction[sink_21,sink_12] 0
interdiction[sink_7,sink_5] 0
interdiction[sink_5,sink_17] 0
interdiction[sink_17,sink_4] 0
interdiction[sink_17,sink_8] 0
interdiction[sink_3,sink_23] 0
interdiction[sink_8,sink_20] 0
interdiction[sink_25,sink_20] 0
interdiction[sink_25,sink_15] 0
interdiction[sink_15,sink_29] 0
interdiction[sink_29,sink_28] 0
interdiction[sink_29,sink_2] 0
interdiction[sink_2,sink_15] 0
interdiction[sink_29,innode_7] 0
interdiction[innode_4,sink_19] 0
interdiction[sink_19,innode_3] 0
interdiction[innode_4,innode_5] 0
interdiction[sink_27,innode_5] 0
interdiction[sink_27,sink_19] 1
interdiction[sink_10,sink_11] 0
interdiction[sink_10,innode_2] 0
interdiction[sink_10,innode_3] 0
interdiction[innode_6,sink_25] 0
interdiction[sink_11,innode_1] 0
interdiction[sink_19,innode_2] 1
interdiction[source_3,innode_4] 0
interdiction[source_2,innode_7] 0
interdiction[sink_3,innode_8] 0
WCcheckFlow[source_1,sink_3] 39
WCcheckFlow[innode_1,sink_16] 1
WCcheckFlow[innode_6,sink_13] 13
WCcheckFlow[sink_13,sink_14] 12
WCcheckFlow[sink_14,sink_10] 11
WCcheckFlow[sink_25,sink_26] 15
WCcheckFlow[sink_26,sink_9] 1
WCcheckFlow[sink_9,sink_18] 0
WCcheckFlow[sink_26,sink_4] 13
WCcheckFlow[sink_4,sink_20] 1
WCcheckFlow[sink_18,sink_6] -1
WCcheckFlow[sink_25,innode_8] -36
WCcheckFlow[sink_6,sink_7] -4
WCcheckFlow[sink_6,sink_22] 2
WCcheckFlow[sink_7,sink_24] 3
WCcheckFlow[sink_22,sink_1] 1
WCcheckFlow[sink_24,sink_21] 2
WCcheckFlow[sink_21,sink_12] 1
WCcheckFlow[sink_7,sink_5] -8
WCcheckFlow[sink_5,sink_17] -9
WCcheckFlow[sink_17,sink_4] -11
WCcheckFlow[sink_17,sink_8] 1
WCcheckFlow[sink_3,sink_23] 1
WCcheckFlow[sink_8,sink_20] 0
WCcheckFlow[sink_25,sink_20] 0
WCcheckFlow[sink_25,sink_15] 6
WCcheckFlow[sink_15,sink_29] 5
WCcheckFlow[sink_29,sink_28] 1
WCcheckFlow[sink_29,sink_2] 1
WCcheckFlow[sink_2,sink_15] 0
WCcheckFlow[sink_29,innode_7] 2
WCcheckFlow[innode_4,sink_19] -4
WCcheckFlow[sink_19,innode_3] -5
WCcheckFlow[innode_4,innode_5] 2
WCcheckFlow[sink_27,innode_5] -1
WCcheckFlow[sink_27,sink_19] 0
WCcheckFlow[sink_10,sink_11] 3
WCcheckFlow[sink_10,innode_2] 1
WCcheckFlow[sink_10,innode_3] 6
WCcheckFlow[innode_6,sink_25] -14
WCcheckFlow[sink_11,innode_1] 2
WCcheckFlow[sink_19,innode_2] 0
WCcheckFlow[source_3,innode_4] -1
WCcheckFlow[source_2,innode_7] -1
WCcheckFlow[sink_3,innode_8] 37
